#######################################
### Exact MIP solver for the HHCRSP ###
#######################################
-- Instance file: new-instances/HHCRSP_100_20_65_1.2_R_RC.txt
-- Max threads: 4
-- Time limit: 999999 seconds
-- Use initial solution: No
Trivial flow violations prevented generating 46446 variables.
Model exported.
Version identifier: 20.1.0.0 | 2020-11-10 | 9bedb6d68
CPXPARAM_Threads                                 4
CPXPARAM_TimeLimit                               999999
Parallel mode: deterministic, using up to 4 threads for concurrent optimization:
 * Starting dual Simplex on 1 thread...
 * Starting Barrier on 3 threads...
Tried aggregator 1 time.
LP Presolve eliminated 5364 rows and 1238 columns.
Reduced LP has 49910 rows, 47795 columns, and 566078 nonzeros.
Presolve time = 0.54 sec. (148.17 ticks)
Symmetry aggregator did 56672 additional substitutions.

Iteration log . . .
Iteration:     1   Dual objective     =             0.000000

Dual crossover.
  Dual:  Fixing 263 variables.
      262 DMoves:  Infeasibility  3.91908914e-14  Objective  1.98666667e+02
        0 DMoves:  Infeasibility  3.59712446e-14  Objective  1.98666667e+02
  Dual:  Pushed 24, exchanged 239.
  Primal:  Fixing 107 variables.
      106 PMoves:  Infeasibility  2.22044605e-16  Objective  1.98666667e+02
        0 PMoves:  Infeasibility  4.44089210e-16  Objective  1.98666667e+02
  Primal:  Pushed 53, exchanged 54.

Dual simplex solved model.


Solution status from MIP model:
-- Processing time: 0.81 sec.
-- Memory used: 117.411 MB
-- Best bound: inf
-- Obj value: 198.667
-- Gap: inf%
-- Total distance: 596
-- Total tardiness: 0
-- Largest tardiness: 0
